(set-info :smt-lib-version 2.6)
(set-logic UF)
(set-info :source |Benchmarks from the paper: "Extending Sledgehammer with SMT Solvers" by Jasmin Blanchette, Sascha Bohme, and Lawrence C. Paulson, CADE 2011.  Translated to SMT2 by Andrew Reynolds and Morgan Deters.|)
(set-info :category "industrial")
(set-info :status unknown)
(declare-sort S1 0)
(declare-sort S2 0)
(declare-sort S3 0)
(declare-sort S4 0)
(declare-sort S5 0)
(declare-sort S6 0)
(declare-sort S7 0)
(declare-sort S8 0)
(declare-sort S9 0)
(declare-sort S10 0)
(declare-sort S11 0)
(declare-sort S12 0)
(declare-sort S13 0)
(declare-sort S14 0)
(declare-sort S15 0)
(declare-sort S16 0)
(declare-sort S17 0)
(declare-sort S18 0)
(declare-sort S19 0)
(declare-sort S20 0)
(declare-sort S21 0)
(declare-sort S22 0)
(declare-sort S23 0)
(declare-sort S24 0)
(declare-sort S25 0)
(declare-sort S26 0)
(declare-sort S27 0)
(declare-sort S28 0)
(declare-sort S29 0)
(declare-sort S30 0)
(declare-sort S31 0)
(declare-sort S32 0)
(declare-sort S33 0)
(declare-sort S34 0)
(declare-sort S35 0)
(declare-sort S36 0)
(declare-sort S37 0)
(declare-sort S38 0)
(declare-sort S39 0)
(declare-sort S40 0)
(declare-sort S41 0)
(declare-sort S42 0)
(declare-sort S43 0)
(declare-sort S44 0)
(declare-sort S45 0)
(declare-sort S46 0)
(declare-sort S47 0)
(declare-sort S48 0)
(declare-sort S49 0)
(declare-sort S50 0)
(declare-sort S51 0)
(declare-sort S52 0)
(declare-sort S53 0)
(declare-sort S54 0)
(declare-sort S55 0)
(declare-sort S56 0)
(declare-sort S57 0)
(declare-fun f1 () S1)
(declare-fun f2 () S1)
(declare-fun f3 (S2 S3 S4) S1)
(declare-fun f4 () S2)
(declare-fun f5 (S5 S6) S3)
(declare-fun f6 (S7 S8) S5)
(declare-fun f7 (S9 S5) S7)
(declare-fun f8 () S9)
(declare-fun f9 () S5)
(declare-fun f10 () S8)
(declare-fun f11 () S6)
(declare-fun f12 () S4)
(declare-fun f13 (S11 S12) S1)
(declare-fun f14 (S13 S6) S12)
(declare-fun f15 () S13)
(declare-fun f16 (S14 S4) S1)
(declare-fun f17 (S2 S11) S14)
(declare-fun f18 (S15 S4) S4)
(declare-fun f19 (S16 S10) S15)
(declare-fun f20 () S16)
(declare-fun f21 (S17 S11) S10)
(declare-fun f22 () S17)
(declare-fun f23 () S10)
(declare-fun f24 () S17)
(declare-fun f25 (S8 S6) S6)
(declare-fun f26 (S3 S19) S1)
(declare-fun f27 (S20 S18) S19)
(declare-fun f28 () S20)
(declare-fun f29 (S21 S18) S18)
(declare-fun f30 (S22 S3) S21)
(declare-fun f31 () S22)
(declare-fun f32 (S23 S11) S8)
(declare-fun f33 () S23)
(declare-fun f34 (S24 S26) S1)
(declare-fun f35 (S27 S25) S26)
(declare-fun f36 () S27)
(declare-fun f37 (S28 S25) S25)
(declare-fun f38 (S29 S24) S28)
(declare-fun f39 () S29)
(declare-fun f40 (S25 S31) S1)
(declare-fun f41 (S32 S30) S31)
(declare-fun f42 () S32)
(declare-fun f43 (S33 S30) S30)
(declare-fun f44 (S34 S25) S33)
(declare-fun f45 () S34)
(declare-fun f46 (S10 S35) S1)
(declare-fun f47 (S36 S4) S35)
(declare-fun f48 () S36)
(declare-fun f49 (S37 S11) S11)
(declare-fun f50 () S37)
(declare-fun f51 (S38 S18) S3)
(declare-fun f52 () S38)
(declare-fun f53 () S22)
(declare-fun f54 () S23)
(declare-fun f55 () S29)
(declare-fun f56 () S34)
(declare-fun f57 () S16)
(declare-fun f58 () S38)
(declare-fun f59 (S25) S1)
(declare-fun f60 (S30) S1)
(declare-fun f61 (S4) S1)
(declare-fun f62 (S6) S1)
(declare-fun f63 (S18) S1)
(declare-fun f64 (S19 S3) S1)
(declare-fun f65 () S20)
(declare-fun f66 (S12 S11) S1)
(declare-fun f67 () S13)
(declare-fun f68 (S35 S10) S1)
(declare-fun f69 () S36)
(declare-fun f70 (S31 S25) S1)
(declare-fun f71 () S32)
(declare-fun f72 (S26 S24) S1)
(declare-fun f73 () S27)
(declare-fun f74 (S3 S18) S1)
(declare-fun f75 (S11 S6) S1)
(declare-fun f76 (S10 S4) S1)
(declare-fun f77 (S25 S30) S1)
(declare-fun f78 (S24) S31)
(declare-fun f79 (S39 S18) S1)
(declare-fun f80 (S19) S39)
(declare-fun f81 (S40 S6) S1)
(declare-fun f82 (S12) S40)
(declare-fun f83 (S35) S14)
(declare-fun f84 (S41 S30) S1)
(declare-fun f85 (S31) S41)
(declare-fun f86 (S26) S31)
(declare-fun f87 (S42 S25) S28)
(declare-fun f88 () S42)
(declare-fun f89 (S43 S30) S33)
(declare-fun f90 () S43)
(declare-fun f91 (S44 S4) S15)
(declare-fun f92 () S44)
(declare-fun f93 (S45 S6) S8)
(declare-fun f94 () S45)
(declare-fun f95 (S46 S18) S21)
(declare-fun f96 () S46)
(declare-fun f97 (S47 S12 S2 S12 S37) S1)
(declare-fun f98 () S21)
(declare-fun f99 () S8)
(declare-fun f100 () S28)
(declare-fun f101 () S33)
(declare-fun f102 () S15)
(declare-fun f103 () S30)
(declare-fun f104 () S25)
(declare-fun f105 () S4)
(declare-fun f106 () S6)
(declare-fun f107 () S18)
(declare-fun f108 (S48 S24) S26)
(declare-fun f109 (S49 S25) S31)
(declare-fun f110 (S48) S49)
(declare-fun f111 (S49 S30 S30) S1)
(declare-fun f112 (S50 S10) S35)
(declare-fun f113 (S50 S4 S4) S1)
(declare-fun f114 (S51 S11) S12)
(declare-fun f115 (S51 S6 S6) S1)
(declare-fun f116 (S52 S3) S19)
(declare-fun f117 (S52 S18 S18) S1)
(declare-fun f118 (S53 S19) S19)
(declare-fun f119 (S3) S53)
(declare-fun f120 (S54 S12) S12)
(declare-fun f121 (S11) S54)
(declare-fun f122 (S55 S35) S35)
(declare-fun f123 (S10) S55)
(declare-fun f124 (S56 S31) S31)
(declare-fun f125 (S25) S56)
(declare-fun f126 (S57 S26) S26)
(declare-fun f127 (S24) S57)
(declare-fun f128 (S47 S11) S3)
(assert (not (= f1 f2)))
(assert (not (= (= (f3 f4 (f5 (f6 (f7 f8 f9) f10) f11) f12) f1) (exists ((?v0 S10)) (forall ((?v1 S11)) (=> (= (f13 ?v1 (f14 f15 f11)) f1) (= (f16 (f17 f4 ?v1) (f18 (f19 f20 ?v0) f12)) f1)))))))
(assert (forall ((?v0 S11)) (=> (= (f13 ?v0 (f14 f15 f11)) f1) (not (= (f21 f22 ?v0) f23)))))
(assert (forall ((?v0 S11)) (=> (= (f13 ?v0 (f14 f15 f11)) f1) (not (= (f21 f24 ?v0) f23)))))
(assert (forall ((?v0 S6) (?v1 S4)) (=> (forall ((?v2 S11)) (=> (= (f13 ?v2 (f14 f15 ?v0)) f1) (not (= (f21 f24 ?v2) f23)))) (= (exists ((?v2 S10)) (forall ((?v3 S11)) (=> (= (f13 ?v3 (f14 f15 (f25 f10 ?v0))) f1) (= (f16 (f17 f4 ?v3) (f18 (f19 f20 ?v2) ?v1)) f1)))) (exists ((?v2 S10)) (forall ((?v3 S11)) (=> (= (f13 ?v3 (f14 f15 ?v0)) f1) (= (f16 (f17 f4 ?v3) (f18 (f19 f20 ?v2) ?v1)) f1))))))))
(assert (forall ((?v0 S6) (?v1 S11)) (=> (forall ((?v2 S11)) (=> (= (f13 ?v2 (f14 f15 ?v0)) f1) (not (= (f21 f22 ?v2) f23)))) (=> (forall ((?v2 S11)) (=> (= (f13 ?v2 (f14 f15 ?v0)) f1) (not (= (f21 f24 ?v2) f23)))) (=> (= (f13 ?v1 (f14 f15 (f25 f10 ?v0))) f1) (not (= (f21 f22 ?v1) f23)))))))
(assert (forall ((?v0 S3) (?v1 S3) (?v2 S18)) (=> (= (f26 ?v0 (f27 f28 (f29 (f30 f31 ?v1) ?v2))) f1) (or (= ?v0 ?v1) (= (f26 ?v0 (f27 f28 ?v2)) f1)))))
(assert (forall ((?v0 S11) (?v1 S11) (?v2 S6)) (=> (= (f13 ?v0 (f14 f15 (f25 (f32 f33 ?v1) ?v2))) f1) (or (= ?v0 ?v1) (= (f13 ?v0 (f14 f15 ?v2)) f1)))))
(assert (forall ((?v0 S24) (?v1 S24) (?v2 S25)) (=> (= (f34 ?v0 (f35 f36 (f37 (f38 f39 ?v1) ?v2))) f1) (or (= ?v0 ?v1) (= (f34 ?v0 (f35 f36 ?v2)) f1)))))
(assert (forall ((?v0 S25) (?v1 S25) (?v2 S30)) (=> (= (f40 ?v0 (f41 f42 (f43 (f44 f45 ?v1) ?v2))) f1) (or (= ?v0 ?v1) (= (f40 ?v0 (f41 f42 ?v2)) f1)))))
(assert (forall ((?v0 S10) (?v1 S10) (?v2 S4)) (=> (= (f46 ?v0 (f47 f48 (f18 (f19 f20 ?v1) ?v2))) f1) (or (= ?v0 ?v1) (= (f46 ?v0 (f47 f48 ?v2)) f1)))))
(assert (forall ((?v0 S11) (?v1 S10) (?v2 S4)) (=> (not (not (= (f21 f24 ?v0) f23))) (= (= (f16 (f17 f4 ?v0) (f18 (f19 f20 ?v1) ?v2)) f1) (= (f16 (f17 f4 (f49 f50 ?v0)) ?v2) f1)))))
(assert (forall ((?v0 S5) (?v1 S8) (?v2 S6)) (= (f5 (f6 (f7 f8 ?v0) ?v1) ?v2) (f5 ?v0 (f25 ?v1 ?v2)))))
(assert (forall ((?v0 S5) (?v1 S8) (?v2 S6)) (= (f5 (f6 (f7 f8 ?v0) ?v1) ?v2) (f5 ?v0 (f25 ?v1 ?v2)))))
(assert (forall ((?v0 S5) (?v1 S8) (?v2 S5) (?v3 S6)) (=> (= (f6 (f7 f8 ?v0) ?v1) ?v2) (= (f5 ?v0 (f25 ?v1 ?v3)) (f5 ?v2 ?v3)))))
(assert (forall ((?v0 S25) (?v1 S24)) (not (= ?v0 (f37 (f38 f39 ?v1) ?v0)))))
(assert (forall ((?v0 S30) (?v1 S25)) (not (= ?v0 (f43 (f44 f45 ?v1) ?v0)))))
(assert (forall ((?v0 S4) (?v1 S10)) (not (= ?v0 (f18 (f19 f20 ?v1) ?v0)))))
(assert (forall ((?v0 S6) (?v1 S11)) (not (= ?v0 (f25 (f32 f33 ?v1) ?v0)))))
(assert (forall ((?v0 S18) (?v1 S3)) (not (= ?v0 (f29 (f30 f31 ?v1) ?v0)))))
(assert (forall ((?v0 S11)) (=> (not (not (= (f21 f24 ?v0) f23))) (=> (not (= (f21 f22 ?v0) f23)) (not (= (f21 f22 (f49 f50 ?v0)) f23))))))
(assert (forall ((?v0 S24) (?v1 S25) (?v2 S24) (?v3 S25)) (= (= (f37 (f38 f39 ?v0) ?v1) (f37 (f38 f39 ?v2) ?v3)) (and (= ?v0 ?v2) (= ?v1 ?v3)))))
(assert (forall ((?v0 S25) (?v1 S30) (?v2 S25) (?v3 S30)) (= (= (f43 (f44 f45 ?v0) ?v1) (f43 (f44 f45 ?v2) ?v3)) (and (= ?v0 ?v2) (= ?v1 ?v3)))))
(assert (forall ((?v0 S10) (?v1 S4) (?v2 S10) (?v3 S4)) (= (= (f18 (f19 f20 ?v0) ?v1) (f18 (f19 f20 ?v2) ?v3)) (and (= ?v0 ?v2) (= ?v1 ?v3)))))
(assert (forall ((?v0 S11) (?v1 S6) (?v2 S11) (?v3 S6)) (= (= (f25 (f32 f33 ?v0) ?v1) (f25 (f32 f33 ?v2) ?v3)) (and (= ?v0 ?v2) (= ?v1 ?v3)))))
(assert (forall ((?v0 S3) (?v1 S18) (?v2 S3) (?v3 S18)) (= (= (f29 (f30 f31 ?v0) ?v1) (f29 (f30 f31 ?v2) ?v3)) (and (= ?v0 ?v2) (= ?v1 ?v3)))))
(assert (forall ((?v0 S24) (?v1 S25)) (not (= (f37 (f38 f39 ?v0) ?v1) ?v1))))
(assert (forall ((?v0 S25) (?v1 S30)) (not (= (f43 (f44 f45 ?v0) ?v1) ?v1))))
(assert (forall ((?v0 S10) (?v1 S4)) (not (= (f18 (f19 f20 ?v0) ?v1) ?v1))))
(assert (forall ((?v0 S11) (?v1 S6)) (not (= (f25 (f32 f33 ?v0) ?v1) ?v1))))
(assert (forall ((?v0 S3) (?v1 S18)) (not (= (f29 (f30 f31 ?v0) ?v1) ?v1))))
(assert (forall ((?v0 S18) (?v1 S4)) (= (= (f3 f4 (f51 f52 ?v0) ?v1) f1) (forall ((?v2 S3)) (=> (= (f26 ?v2 (f27 f28 ?v0)) f1) (= (f3 f4 ?v2 ?v1) f1))))))
(assert (forall ((?v0 S3) (?v1 S18)) (=> (not (= (f26 ?v0 (f27 f28 ?v1)) f1)) (= (f29 (f30 f53 ?v0) ?v1) (f29 (f30 f31 ?v0) ?v1)))))
(assert (forall ((?v0 S11) (?v1 S6)) (=> (not (= (f13 ?v0 (f14 f15 ?v1)) f1)) (= (f25 (f32 f54 ?v0) ?v1) (f25 (f32 f33 ?v0) ?v1)))))
(assert (forall ((?v0 S24) (?v1 S25)) (=> (not (= (f34 ?v0 (f35 f36 ?v1)) f1)) (= (f37 (f38 f55 ?v0) ?v1) (f37 (f38 f39 ?v0) ?v1)))))
(assert (forall ((?v0 S25) (?v1 S30)) (=> (not (= (f40 ?v0 (f41 f42 ?v1)) f1)) (= (f43 (f44 f56 ?v0) ?v1) (f43 (f44 f45 ?v0) ?v1)))))
(assert (forall ((?v0 S10) (?v1 S4)) (=> (not (= (f46 ?v0 (f47 f48 ?v1)) f1)) (= (f18 (f19 f57 ?v0) ?v1) (f18 (f19 f20 ?v0) ?v1)))))
(assert (forall ((?v0 S3) (?v1 S18)) (= (f29 (f30 f53 ?v0) ?v1) (ite (= (f26 ?v0 (f27 f28 ?v1)) f1) ?v1 (f29 (f30 f31 ?v0) ?v1)))))
(assert (forall ((?v0 S11) (?v1 S6)) (= (f25 (f32 f54 ?v0) ?v1) (ite (= (f13 ?v0 (f14 f15 ?v1)) f1) ?v1 (f25 (f32 f33 ?v0) ?v1)))))
(assert (forall ((?v0 S24) (?v1 S25)) (= (f37 (f38 f55 ?v0) ?v1) (ite (= (f34 ?v0 (f35 f36 ?v1)) f1) ?v1 (f37 (f38 f39 ?v0) ?v1)))))
(assert (forall ((?v0 S25) (?v1 S30)) (= (f43 (f44 f56 ?v0) ?v1) (ite (= (f40 ?v0 (f41 f42 ?v1)) f1) ?v1 (f43 (f44 f45 ?v0) ?v1)))))
(assert (forall ((?v0 S10) (?v1 S4)) (= (f18 (f19 f57 ?v0) ?v1) (ite (= (f46 ?v0 (f47 f48 ?v1)) f1) ?v1 (f18 (f19 f20 ?v0) ?v1)))))
(assert (forall ((?v0 S18) (?v1 S4)) (= (= (f3 f4 (f51 f58 ?v0) ?v1) f1) (exists ((?v2 S3)) (and (= (f26 ?v2 (f27 f28 ?v0)) f1) (= (f3 f4 ?v2 ?v1) f1))))))
(assert (forall ((?v0 S10)) (= (= f23 ?v0) (= ?v0 f23))))
(assert (forall ((?v0 S24) (?v1 S25)) (= (= (f59 (f37 (f38 f39 ?v0) ?v1)) f1) false)))
(assert (forall ((?v0 S25) (?v1 S30)) (= (= (f60 (f43 (f44 f45 ?v0) ?v1)) f1) false)))
(assert (forall ((?v0 S10) (?v1 S4)) (= (= (f61 (f18 (f19 f20 ?v0) ?v1)) f1) false)))
(assert (forall ((?v0 S11) (?v1 S6)) (= (= (f62 (f25 (f32 f33 ?v0) ?v1)) f1) false)))
(assert (forall ((?v0 S3) (?v1 S18)) (= (= (f63 (f29 (f30 f31 ?v0) ?v1)) f1) false)))
(assert (forall ((?v0 S3) (?v1 S18)) (= (= (f26 ?v0 (f27 f28 ?v1)) f1) (= (f64 (f27 f65 ?v1) ?v0) f1))))
(assert (forall ((?v0 S11) (?v1 S6)) (= (= (f13 ?v0 (f14 f15 ?v1)) f1) (= (f66 (f14 f67 ?v1) ?v0) f1))))
(assert (forall ((?v0 S10) (?v1 S4)) (= (= (f46 ?v0 (f47 f48 ?v1)) f1) (= (f68 (f47 f69 ?v1) ?v0) f1))))
(assert (forall ((?v0 S25) (?v1 S30)) (= (= (f40 ?v0 (f41 f42 ?v1)) f1) (= (f70 (f41 f71 ?v1) ?v0) f1))))
(assert (forall ((?v0 S24) (?v1 S25)) (= (= (f34 ?v0 (f35 f36 ?v1)) f1) (= (f72 (f35 f73 ?v1) ?v0) f1))))
(assert (forall ((?v0 S3) (?v1 S18)) (= (= (f74 ?v0 ?v1) f1) (= (f26 ?v0 (f27 f28 ?v1)) f1))))
(assert (forall ((?v0 S11) (?v1 S6)) (= (= (f75 ?v0 ?v1) f1) (= (f13 ?v0 (f14 f15 ?v1)) f1))))
(assert (forall ((?v0 S10) (?v1 S4)) (= (= (f76 ?v0 ?v1) f1) (= (f46 ?v0 (f47 f48 ?v1)) f1))))
(assert (forall ((?v0 S25) (?v1 S30)) (= (= (f77 ?v0 ?v1) f1) (= (f40 ?v0 (f41 f42 ?v1)) f1))))
(assert (forall ((?v0 S24) (?v1 S25)) (= (= (f70 (f78 ?v0) ?v1) f1) (= (f34 ?v0 (f35 f36 ?v1)) f1))))
(assert (forall ((?v0 S18) (?v1 S3)) (= (= (f64 (f27 f65 ?v0) ?v1) f1) (= (f26 ?v1 (f27 f28 ?v0)) f1))))
(assert (forall ((?v0 S6) (?v1 S11)) (= (= (f66 (f14 f67 ?v0) ?v1) f1) (= (f13 ?v1 (f14 f15 ?v0)) f1))))
(assert (forall ((?v0 S4) (?v1 S10)) (= (= (f68 (f47 f69 ?v0) ?v1) f1) (= (f46 ?v1 (f47 f48 ?v0)) f1))))
(assert (forall ((?v0 S30) (?v1 S25)) (= (= (f70 (f41 f71 ?v0) ?v1) f1) (= (f40 ?v1 (f41 f42 ?v0)) f1))))
(assert (forall ((?v0 S25) (?v1 S24)) (= (= (f72 (f35 f73 ?v0) ?v1) f1) (= (f34 ?v1 (f35 f36 ?v0)) f1))))
(assert (forall ((?v0 S3) (?v1 S18)) (=> (= (f26 ?v0 (f27 f28 ?v1)) f1) (= (f29 (f30 f53 ?v0) ?v1) ?v1))))
(assert (forall ((?v0 S11) (?v1 S6)) (=> (= (f13 ?v0 (f14 f15 ?v1)) f1) (= (f25 (f32 f54 ?v0) ?v1) ?v1))))
(assert (forall ((?v0 S10) (?v1 S4)) (=> (= (f46 ?v0 (f47 f48 ?v1)) f1) (= (f18 (f19 f57 ?v0) ?v1) ?v1))))
(assert (forall ((?v0 S25) (?v1 S30)) (=> (= (f40 ?v0 (f41 f42 ?v1)) f1) (= (f43 (f44 f56 ?v0) ?v1) ?v1))))
(assert (forall ((?v0 S24) (?v1 S25)) (=> (= (f34 ?v0 (f35 f36 ?v1)) f1) (= (f37 (f38 f55 ?v0) ?v1) ?v1))))
(assert (forall ((?v0 S24) (?v1 S25)) (= (f70 (f78 ?v0) (f37 (f38 f39 ?v0) ?v1)) f1)))
(assert (forall ((?v0 S25) (?v1 S30)) (= (f77 ?v0 (f43 (f44 f45 ?v0) ?v1)) f1)))
(assert (forall ((?v0 S10) (?v1 S4)) (= (f76 ?v0 (f18 (f19 f20 ?v0) ?v1)) f1)))
(assert (forall ((?v0 S11) (?v1 S6)) (= (f75 ?v0 (f25 (f32 f33 ?v0) ?v1)) f1)))
(assert (forall ((?v0 S3) (?v1 S18)) (= (f74 ?v0 (f29 (f30 f31 ?v0) ?v1)) f1)))
(assert (forall ((?v0 S24) (?v1 S25) (?v2 S24)) (= (= (f72 (f35 f73 (f37 (f38 f39 ?v0) ?v1)) ?v2) f1) (or (= ?v0 ?v2) (= (f72 (f35 f73 ?v1) ?v2) f1)))))
(assert (forall ((?v0 S25) (?v1 S30) (?v2 S25)) (= (= (f70 (f41 f71 (f43 (f44 f45 ?v0) ?v1)) ?v2) f1) (or (= ?v0 ?v2) (= (f70 (f41 f71 ?v1) ?v2) f1)))))
(assert (forall ((?v0 S10) (?v1 S4) (?v2 S10)) (= (= (f68 (f47 f69 (f18 (f19 f20 ?v0) ?v1)) ?v2) f1) (or (= ?v0 ?v2) (= (f68 (f47 f69 ?v1) ?v2) f1)))))
(assert (forall ((?v0 S11) (?v1 S6) (?v2 S11)) (= (= (f66 (f14 f67 (f25 (f32 f33 ?v0) ?v1)) ?v2) f1) (or (= ?v0 ?v2) (= (f66 (f14 f67 ?v1) ?v2) f1)))))
(assert (forall ((?v0 S3) (?v1 S18) (?v2 S3)) (= (= (f64 (f27 f65 (f29 (f30 f31 ?v0) ?v1)) ?v2) f1) (or (= ?v0 ?v2) (= (f64 (f27 f65 ?v1) ?v2) f1)))))
(assert (forall ((?v0 S24) (?v1 S25) (?v2 S24)) (let ((?v_0 (f78 ?v0))) (=> (= (f70 ?v_0 ?v1) f1) (= (f70 ?v_0 (f37 (f38 f39 ?v2) ?v1)) f1)))))
(assert (forall ((?v0 S25) (?v1 S30) (?v2 S25)) (=> (= (f77 ?v0 ?v1) f1) (= (f77 ?v0 (f43 (f44 f45 ?v2) ?v1)) f1))))
(assert (forall ((?v0 S10) (?v1 S4) (?v2 S10)) (=> (= (f76 ?v0 ?v1) f1) (= (f76 ?v0 (f18 (f19 f20 ?v2) ?v1)) f1))))
(assert (forall ((?v0 S11) (?v1 S6) (?v2 S11)) (=> (= (f75 ?v0 ?v1) f1) (= (f75 ?v0 (f25 (f32 f33 ?v2) ?v1)) f1))))
(assert (forall ((?v0 S3) (?v1 S18) (?v2 S3)) (=> (= (f74 ?v0 ?v1) f1) (= (f74 ?v0 (f29 (f30 f31 ?v2) ?v1)) f1))))
(assert (= f65 f28))
(assert (= f67 f15))
(assert (= f69 f48))
(assert (= f71 f42))
(assert (= f73 f36))
(assert (forall ((?v0 S24) (?v1 S25)) (= (= (f70 (f78 ?v0) ?v1) f1) (or (exists ((?v2 S24) (?v3 S25)) (and (= ?v0 ?v2) (= ?v1 (f37 (f38 f39 ?v2) ?v3)))) (exists ((?v2 S24) (?v3 S25) (?v4 S24)) (and (= ?v0 ?v2) (and (= ?v1 (f37 (f38 f39 ?v4) ?v3)) (= (f70 (f78 ?v2) ?v3) f1))))))))
(assert (forall ((?v0 S25) (?v1 S30)) (= (= (f77 ?v0 ?v1) f1) (or (exists ((?v2 S25) (?v3 S30)) (and (= ?v0 ?v2) (= ?v1 (f43 (f44 f45 ?v2) ?v3)))) (exists ((?v2 S25) (?v3 S30) (?v4 S25)) (and (= ?v0 ?v2) (and (= ?v1 (f43 (f44 f45 ?v4) ?v3)) (= (f77 ?v2 ?v3) f1))))))))
(assert (forall ((?v0 S10) (?v1 S4)) (= (= (f76 ?v0 ?v1) f1) (or (exists ((?v2 S10) (?v3 S4)) (and (= ?v0 ?v2) (= ?v1 (f18 (f19 f20 ?v2) ?v3)))) (exists ((?v2 S10) (?v3 S4) (?v4 S10)) (and (= ?v0 ?v2) (and (= ?v1 (f18 (f19 f20 ?v4) ?v3)) (= (f76 ?v2 ?v3) f1))))))))
(assert (forall ((?v0 S11) (?v1 S6)) (= (= (f75 ?v0 ?v1) f1) (or (exists ((?v2 S11) (?v3 S6)) (and (= ?v0 ?v2) (= ?v1 (f25 (f32 f33 ?v2) ?v3)))) (exists ((?v2 S11) (?v3 S6) (?v4 S11)) (and (= ?v0 ?v2) (and (= ?v1 (f25 (f32 f33 ?v4) ?v3)) (= (f75 ?v2 ?v3) f1))))))))
(assert (forall ((?v0 S3) (?v1 S18)) (= (= (f74 ?v0 ?v1) f1) (or (exists ((?v2 S3) (?v3 S18)) (and (= ?v0 ?v2) (= ?v1 (f29 (f30 f31 ?v2) ?v3)))) (exists ((?v2 S3) (?v3 S18) (?v4 S3)) (and (= ?v0 ?v2) (and (= ?v1 (f29 (f30 f31 ?v4) ?v3)) (= (f74 ?v2 ?v3) f1))))))))
(assert (forall ((?v0 S19) (?v1 S18)) (= (= (f79 (f80 ?v0) ?v1) f1) (exists ((?v2 S3)) (and (and (= (f26 ?v2 (f27 f28 ?v1)) f1) (= (f64 ?v0 ?v2) f1)) (forall ((?v3 S3)) (=> (and (= (f26 ?v3 (f27 f28 ?v1)) f1) (= (f64 ?v0 ?v3) f1)) (= ?v3 ?v2))))))))
(assert (forall ((?v0 S12) (?v1 S6)) (= (= (f81 (f82 ?v0) ?v1) f1) (exists ((?v2 S11)) (and (and (= (f13 ?v2 (f14 f15 ?v1)) f1) (= (f66 ?v0 ?v2) f1)) (forall ((?v3 S11)) (=> (and (= (f13 ?v3 (f14 f15 ?v1)) f1) (= (f66 ?v0 ?v3) f1)) (= ?v3 ?v2))))))))
(assert (forall ((?v0 S35) (?v1 S4)) (= (= (f16 (f83 ?v0) ?v1) f1) (exists ((?v2 S10)) (and (and (= (f46 ?v2 (f47 f48 ?v1)) f1) (= (f68 ?v0 ?v2) f1)) (forall ((?v3 S10)) (=> (and (= (f46 ?v3 (f47 f48 ?v1)) f1) (= (f68 ?v0 ?v3) f1)) (= ?v3 ?v2))))))))
(assert (forall ((?v0 S31) (?v1 S30)) (= (= (f84 (f85 ?v0) ?v1) f1) (exists ((?v2 S25)) (and (and (= (f40 ?v2 (f41 f42 ?v1)) f1) (= (f70 ?v0 ?v2) f1)) (forall ((?v3 S25)) (=> (and (= (f40 ?v3 (f41 f42 ?v1)) f1) (= (f70 ?v0 ?v3) f1)) (= ?v3 ?v2))))))))
(assert (forall ((?v0 S26) (?v1 S25)) (= (= (f70 (f86 ?v0) ?v1) f1) (exists ((?v2 S24)) (and (and (= (f34 ?v2 (f35 f36 ?v1)) f1) (= (f72 ?v0 ?v2) f1)) (forall ((?v3 S24)) (=> (and (= (f34 ?v3 (f35 f36 ?v1)) f1) (= (f72 ?v0 ?v3) f1)) (= ?v3 ?v2))))))))
(assert (forall ((?v0 S24) (?v1 S25) (?v2 S24) (?v3 S25)) (let ((?v_0 (f38 f39 ?v0)) (?v_1 (f38 f39 ?v2))) (= (f37 (f87 f88 (f37 ?v_0 ?v1)) (f37 ?v_1 ?v3)) (f37 ?v_0 (f37 ?v_1 (f37 (f87 f88 ?v1) ?v3)))))))
(assert (forall ((?v0 S25) (?v1 S30) (?v2 S25) (?v3 S30)) (let ((?v_0 (f44 f45 ?v0)) (?v_1 (f44 f45 ?v2))) (= (f43 (f89 f90 (f43 ?v_0 ?v1)) (f43 ?v_1 ?v3)) (f43 ?v_0 (f43 ?v_1 (f43 (f89 f90 ?v1) ?v3)))))))
(assert (forall ((?v0 S10) (?v1 S4) (?v2 S10) (?v3 S4)) (let ((?v_0 (f19 f20 ?v0)) (?v_1 (f19 f20 ?v2))) (= (f18 (f91 f92 (f18 ?v_0 ?v1)) (f18 ?v_1 ?v3)) (f18 ?v_0 (f18 ?v_1 (f18 (f91 f92 ?v1) ?v3)))))))
(assert (forall ((?v0 S11) (?v1 S6) (?v2 S11) (?v3 S6)) (let ((?v_0 (f32 f33 ?v0)) (?v_1 (f32 f33 ?v2))) (= (f25 (f93 f94 (f25 ?v_0 ?v1)) (f25 ?v_1 ?v3)) (f25 ?v_0 (f25 ?v_1 (f25 (f93 f94 ?v1) ?v3)))))))
(assert (forall ((?v0 S3) (?v1 S18) (?v2 S3) (?v3 S18)) (let ((?v_0 (f30 f31 ?v0)) (?v_1 (f30 f31 ?v2))) (= (f29 (f95 f96 (f29 ?v_0 ?v1)) (f29 ?v_1 ?v3)) (f29 ?v_0 (f29 ?v_1 (f29 (f95 f96 ?v1) ?v3)))))))
(assert (forall ((?v0 S47) (?v1 S12) (?v2 S2) (?v3 S12) (?v4 S37) (?v5 S18) (?v6 S4)) (=> (= (f97 ?v0 ?v1 ?v2 ?v3 ?v4) f1) (= (= (f3 ?v2 (f51 f52 ?v5) ?v6) f1) (forall ((?v7 S3)) (=> (= (f26 ?v7 (f27 f28 ?v5)) f1) (= (f3 ?v2 ?v7 ?v6) f1)))))))
(assert (forall ((?v0 S3) (?v1 S18)) (let ((?v_0 (f30 f31 ?v0)) (?v_1 (f29 f98 ?v1))) (= (f29 f98 (f29 ?v_0 ?v1)) (ite (= (f26 ?v0 (f27 f28 ?v1)) f1) ?v_1 (f29 ?v_0 ?v_1))))))
(assert (forall ((?v0 S11) (?v1 S6)) (let ((?v_0 (f32 f33 ?v0)) (?v_1 (f25 f99 ?v1))) (= (f25 f99 (f25 ?v_0 ?v1)) (ite (= (f13 ?v0 (f14 f15 ?v1)) f1) ?v_1 (f25 ?v_0 ?v_1))))))
(assert (forall ((?v0 S24) (?v1 S25)) (let ((?v_0 (f38 f39 ?v0)) (?v_1 (f37 f100 ?v1))) (= (f37 f100 (f37 ?v_0 ?v1)) (ite (= (f34 ?v0 (f35 f36 ?v1)) f1) ?v_1 (f37 ?v_0 ?v_1))))))
(assert (forall ((?v0 S25) (?v1 S30)) (let ((?v_0 (f44 f45 ?v0)) (?v_1 (f43 f101 ?v1))) (= (f43 f101 (f43 ?v_0 ?v1)) (ite (= (f40 ?v0 (f41 f42 ?v1)) f1) ?v_1 (f43 ?v_0 ?v_1))))))
(assert (forall ((?v0 S10) (?v1 S4)) (let ((?v_0 (f19 f20 ?v0)) (?v_1 (f18 f102 ?v1))) (= (f18 f102 (f18 ?v_0 ?v1)) (ite (= (f46 ?v0 (f47 f48 ?v1)) f1) ?v_1 (f18 ?v_0 ?v_1))))))
(assert (forall ((?v0 S25)) (= (f43 (f44 f56 ?v0) f103) (f43 (f44 f45 ?v0) f103))))
(assert (forall ((?v0 S24)) (= (f37 (f38 f55 ?v0) f104) (f37 (f38 f39 ?v0) f104))))
(assert (forall ((?v0 S10)) (= (f18 (f19 f57 ?v0) f105) (f18 (f19 f20 ?v0) f105))))
(assert (forall ((?v0 S11)) (= (f25 (f32 f54 ?v0) f106) (f25 (f32 f33 ?v0) f106))))
(assert (forall ((?v0 S3)) (= (f29 (f30 f53 ?v0) f107) (f29 (f30 f31 ?v0) f107))))
(assert (forall ((?v0 S48) (?v1 S24) (?v2 S24) (?v3 S25) (?v4 S25)) (let ((?v_0 (f110 ?v0))) (=> (= (f72 (f108 ?v0 ?v1) ?v2) f1) (=> (= (f70 (f109 ?v_0 ?v3) ?v4) f1) (= (f70 (f109 ?v_0 (f37 (f38 f39 ?v1) ?v3)) (f37 (f38 f39 ?v2) ?v4)) f1))))))
(assert (forall ((?v0 S49) (?v1 S25) (?v2 S25) (?v3 S30) (?v4 S30)) (=> (= (f70 (f109 ?v0 ?v1) ?v2) f1) (=> (= (f111 ?v0 ?v3 ?v4) f1) (= (f111 ?v0 (f43 (f44 f45 ?v1) ?v3) (f43 (f44 f45 ?v2) ?v4)) f1)))))
(assert (forall ((?v0 S50) (?v1 S10) (?v2 S10) (?v3 S4) (?v4 S4)) (=> (= (f68 (f112 ?v0 ?v1) ?v2) f1) (=> (= (f113 ?v0 ?v3 ?v4) f1) (= (f113 ?v0 (f18 (f19 f20 ?v1) ?v3) (f18 (f19 f20 ?v2) ?v4)) f1)))))
(assert (forall ((?v0 S51) (?v1 S11) (?v2 S11) (?v3 S6) (?v4 S6)) (=> (= (f66 (f114 ?v0 ?v1) ?v2) f1) (=> (= (f115 ?v0 ?v3 ?v4) f1) (= (f115 ?v0 (f25 (f32 f33 ?v1) ?v3) (f25 (f32 f33 ?v2) ?v4)) f1)))))
(assert (forall ((?v0 S52) (?v1 S3) (?v2 S3) (?v3 S18) (?v4 S18)) (=> (= (f64 (f116 ?v0 ?v1) ?v2) f1) (=> (= (f117 ?v0 ?v3 ?v4) f1) (= (f117 ?v0 (f29 (f30 f31 ?v1) ?v3) (f29 (f30 f31 ?v2) ?v4)) f1)))))
(assert (forall ((?v0 S47) (?v1 S12) (?v2 S2) (?v3 S12) (?v4 S37) (?v5 S18) (?v6 S4)) (=> (= (f97 ?v0 ?v1 ?v2 ?v3 ?v4) f1) (= (= (f3 ?v2 (f51 f58 ?v5) ?v6) f1) (exists ((?v7 S3)) (and (= (f26 ?v7 (f27 f28 ?v5)) f1) (= (f3 ?v2 ?v7 ?v6) f1)))))))
(assert (forall ((?v0 S3) (?v1 S18)) (= (f27 f28 (f29 (f30 f53 ?v0) ?v1)) (f118 (f119 ?v0) (f27 f28 ?v1)))))
(assert (forall ((?v0 S11) (?v1 S6)) (= (f14 f15 (f25 (f32 f54 ?v0) ?v1)) (f120 (f121 ?v0) (f14 f15 ?v1)))))
(assert (forall ((?v0 S10) (?v1 S4)) (= (f47 f48 (f18 (f19 f57 ?v0) ?v1)) (f122 (f123 ?v0) (f47 f48 ?v1)))))
(assert (forall ((?v0 S25) (?v1 S30)) (= (f41 f42 (f43 (f44 f56 ?v0) ?v1)) (f124 (f125 ?v0) (f41 f42 ?v1)))))
(assert (forall ((?v0 S24) (?v1 S25)) (= (f35 f36 (f37 (f38 f55 ?v0) ?v1)) (f126 (f127 ?v0) (f35 f36 ?v1)))))
(assert (forall ((?v0 S47) (?v1 S12) (?v2 S2) (?v3 S12) (?v4 S37) (?v5 S11) (?v6 S10) (?v7 S4)) (=> (= (f97 ?v0 ?v1 ?v2 ?v3 ?v4) f1) (=> (not (= (f66 ?v3 ?v5) f1)) (= (= (f16 (f17 ?v2 ?v5) (f18 (f19 f20 ?v6) ?v7)) f1) (= (f16 (f17 ?v2 (f49 ?v4 ?v5)) ?v7) f1))))))
(assert (forall ((?v0 S47) (?v1 S12) (?v2 S2) (?v3 S12) (?v4 S37) (?v5 S11)) (=> (= (f97 ?v0 ?v1 ?v2 ?v3 ?v4) f1) (=> (not (= (f66 ?v3 ?v5) f1)) (=> (= (f66 ?v1 ?v5) f1) (= (f66 ?v1 (f49 ?v4 ?v5)) f1))))))
(assert (forall ((?v0 S49)) (= (f111 ?v0 f103 f103) f1)))
(assert (forall ((?v0 S48)) (= (f70 (f109 (f110 ?v0) f104) f104) f1)))
(assert (forall ((?v0 S52)) (= (f117 ?v0 f107 f107) f1)))
(assert (forall ((?v0 S51)) (= (f115 ?v0 f106 f106) f1)))
(assert (forall ((?v0 S50)) (= (f113 ?v0 f105 f105) f1)))
(assert (forall ((?v0 S30)) (= (= (f43 f101 ?v0) f103) (= ?v0 f103))))
(assert (forall ((?v0 S25)) (= (= (f37 f100 ?v0) f104) (= ?v0 f104))))
(assert (forall ((?v0 S4)) (= (= (f18 f102 ?v0) f105) (= ?v0 f105))))
(assert (forall ((?v0 S6)) (= (= (f25 f99 ?v0) f106) (= ?v0 f106))))
(assert (forall ((?v0 S18)) (= (= (f29 f98 ?v0) f107) (= ?v0 f107))))
(assert (forall ((?v0 S30)) (= (f43 (f89 f90 ?v0) f103) ?v0)))
(assert (forall ((?v0 S25)) (= (f37 (f87 f88 ?v0) f104) ?v0)))
(assert (forall ((?v0 S18)) (= (f29 (f95 f96 ?v0) f107) ?v0)))
(assert (forall ((?v0 S6)) (= (f25 (f93 f94 ?v0) f106) ?v0)))
(assert (forall ((?v0 S4)) (= (f18 (f91 f92 ?v0) f105) ?v0)))
(assert (forall ((?v0 S31)) (= (= (f84 (f85 ?v0) f103) f1) false)))
(assert (forall ((?v0 S26)) (= (= (f70 (f86 ?v0) f104) f1) false)))
(assert (forall ((?v0 S12)) (= (= (f81 (f82 ?v0) f106) f1) false)))
(assert (forall ((?v0 S19)) (= (= (f79 (f80 ?v0) f107) f1) false)))
(assert (forall ((?v0 S35)) (= (= (f16 (f83 ?v0) f105) f1) false)))
(assert (forall ((?v0 S30)) (= (= f103 (f43 f101 ?v0)) (= ?v0 f103))))
(assert (forall ((?v0 S25)) (= (= f104 (f37 f100 ?v0)) (= ?v0 f104))))
(assert (forall ((?v0 S4)) (= (= f105 (f18 f102 ?v0)) (= ?v0 f105))))
(assert (forall ((?v0 S6)) (= (= f106 (f25 f99 ?v0)) (= ?v0 f106))))
(assert (forall ((?v0 S18)) (= (= f107 (f29 f98 ?v0)) (= ?v0 f107))))
(assert (forall ((?v0 S30)) (= (f43 (f89 f90 f103) ?v0) ?v0)))
(assert (forall ((?v0 S25)) (= (f37 (f87 f88 f104) ?v0) ?v0)))
(assert (forall ((?v0 S18)) (= (f29 (f95 f96 f107) ?v0) ?v0)))
(assert (forall ((?v0 S6)) (= (f25 (f93 f94 f106) ?v0) ?v0)))
(assert (forall ((?v0 S4)) (= (f18 (f91 f92 f105) ?v0) ?v0)))
(assert (forall ((?v0 S4)) (let ((?v_0 (f18 f102 ?v0))) (= (f18 f102 ?v_0) ?v_0))))
(assert (forall ((?v0 S25)) (let ((?v_0 (f37 f100 ?v0))) (= (f37 f100 ?v_0) ?v_0))))
(assert (forall ((?v0 S30)) (let ((?v_0 (f43 f101 ?v0))) (= (f43 f101 ?v_0) ?v_0))))
(assert (forall ((?v0 S6)) (let ((?v_0 (f25 f99 ?v0))) (= (f25 f99 ?v_0) ?v_0))))
(assert (forall ((?v0 S18)) (let ((?v_0 (f29 f98 ?v0))) (= (f29 f98 ?v_0) ?v_0))))
(assert (= (f43 f101 f103) f103))
(assert (= (f37 f100 f104) f104))
(assert (= (f18 f102 f105) f105))
(assert (= (f25 f99 f106) f106))
(assert (= (f29 f98 f107) f107))
(assert (forall ((?v0 S47) (?v1 S12) (?v2 S2) (?v3 S12) (?v4 S37) (?v5 S11) (?v6 S4)) (=> (= (f97 ?v0 ?v1 ?v2 ?v3 ?v4) f1) (= (= (f3 ?v2 (f128 ?v0 ?v5) ?v6) f1) (not (= (f16 (f17 ?v2 ?v5) ?v6) f1))))))
(assert (forall ((?v0 S25) (?v1 S30)) (let ((?v_0 (f43 (f44 f45 ?v0) ?v1))) (= (f43 (f89 f90 ?v_0) f103) ?v_0))))
(assert (forall ((?v0 S24) (?v1 S25)) (let ((?v_0 (f37 (f38 f39 ?v0) ?v1))) (= (f37 (f87 f88 ?v_0) f104) ?v_0))))
(assert (forall ((?v0 S10) (?v1 S4)) (let ((?v_0 (f18 (f19 f20 ?v0) ?v1))) (= (f18 (f91 f92 ?v_0) f105) ?v_0))))
(assert (forall ((?v0 S11) (?v1 S6)) (let ((?v_0 (f25 (f32 f33 ?v0) ?v1))) (= (f25 (f93 f94 ?v_0) f106) ?v_0))))
(assert (forall ((?v0 S3) (?v1 S18)) (let ((?v_0 (f29 (f30 f31 ?v0) ?v1))) (= (f29 (f95 f96 ?v_0) f107) ?v_0))))
(assert (forall ((?v0 S25) (?v1 S30)) (not (= (f43 (f44 f45 ?v0) ?v1) f103))))
(assert (forall ((?v0 S24) (?v1 S25)) (not (= (f37 (f38 f39 ?v0) ?v1) f104))))
(assert (forall ((?v0 S10) (?v1 S4)) (not (= (f18 (f19 f20 ?v0) ?v1) f105))))
(assert (forall ((?v0 S11) (?v1 S6)) (not (= (f25 (f32 f33 ?v0) ?v1) f106))))
(assert (forall ((?v0 S3) (?v1 S18)) (not (= (f29 (f30 f31 ?v0) ?v1) f107))))
(assert (forall ((?v0 S25) (?v1 S30)) (not (= f103 (f43 (f44 f45 ?v0) ?v1)))))
(assert (forall ((?v0 S24) (?v1 S25)) (not (= f104 (f37 (f38 f39 ?v0) ?v1)))))
(assert (forall ((?v0 S10) (?v1 S4)) (not (= f105 (f18 (f19 f20 ?v0) ?v1)))))
(assert (forall ((?v0 S11) (?v1 S6)) (not (= f106 (f25 (f32 f33 ?v0) ?v1)))))
(assert (forall ((?v0 S3) (?v1 S18)) (not (= f107 (f29 (f30 f31 ?v0) ?v1)))))
(assert (forall ((?v0 S18)) (= (f27 f28 (f29 f98 ?v0)) (f27 f28 ?v0))))
(assert (forall ((?v0 S6)) (= (f14 f15 (f25 f99 ?v0)) (f14 f15 ?v0))))
(assert (forall ((?v0 S4)) (= (f47 f48 (f18 f102 ?v0)) (f47 f48 ?v0))))
(assert (forall ((?v0 S30)) (= (f41 f42 (f43 f101 ?v0)) (f41 f42 ?v0))))
(assert (forall ((?v0 S25)) (= (f35 f36 (f37 f100 ?v0)) (f35 f36 ?v0))))
(assert (forall ((?v0 S30)) (= (= ?v0 f103) (= (f60 ?v0) f1))))
(assert (forall ((?v0 S25)) (= (= ?v0 f104) (= (f59 ?v0) f1))))
(assert (forall ((?v0 S18)) (= (= ?v0 f107) (= (f63 ?v0) f1))))
(assert (forall ((?v0 S6)) (= (= ?v0 f106) (= (f62 ?v0) f1))))
(assert (forall ((?v0 S4)) (= (= ?v0 f105) (= (f61 ?v0) f1))))
(assert (forall ((?v0 S25)) (= (= (f70 (f41 f71 f103) ?v0) f1) false)))
(assert (forall ((?v0 S24)) (= (= (f72 (f35 f73 f104) ?v0) f1) false)))
(assert (forall ((?v0 S10)) (= (= (f68 (f47 f69 f105) ?v0) f1) false)))
(assert (forall ((?v0 S11)) (= (= (f66 (f14 f67 f106) ?v0) f1) false)))
(assert (forall ((?v0 S3)) (= (= (f64 (f27 f65 f107) ?v0) f1) false)))
(assert (forall ((?v0 S30)) (= (= (f60 ?v0) f1) (= ?v0 f103))))
(assert (forall ((?v0 S25)) (= (= (f59 ?v0) f1) (= ?v0 f104))))
(assert (forall ((?v0 S18)) (= (= (f63 ?v0) f1) (= ?v0 f107))))
(assert (forall ((?v0 S6)) (= (= (f62 ?v0) f1) (= ?v0 f106))))
(assert (forall ((?v0 S4)) (= (= (f61 ?v0) f1) (= ?v0 f105))))
(assert (= (= (f60 f103) f1) true))
(assert (= (= (f59 f104) f1) true))
(assert (= (= (f63 f107) f1) true))
(assert (= (= (f62 f106) f1) true))
(assert (= (= (f61 f105) f1) true))
(assert (forall ((?v0 S10) (?v1 S4)) (let ((?v_0 (f19 f57 ?v0))) (= (f18 ?v_0 (f18 f102 ?v1)) (f18 f102 (f18 ?v_0 ?v1))))))
(assert (forall ((?v0 S24) (?v1 S25)) (let ((?v_0 (f38 f55 ?v0))) (= (f37 ?v_0 (f37 f100 ?v1)) (f37 f100 (f37 ?v_0 ?v1))))))
(assert (forall ((?v0 S25) (?v1 S30)) (let ((?v_0 (f44 f56 ?v0))) (= (f43 ?v_0 (f43 f101 ?v1)) (f43 f101 (f43 ?v_0 ?v1))))))
(assert (forall ((?v0 S11) (?v1 S6)) (let ((?v_0 (f32 f54 ?v0))) (= (f25 ?v_0 (f25 f99 ?v1)) (f25 f99 (f25 ?v_0 ?v1))))))
(assert (forall ((?v0 S3) (?v1 S18)) (let ((?v_0 (f30 f53 ?v0))) (= (f29 ?v_0 (f29 f98 ?v1)) (f29 f98 (f29 ?v_0 ?v1))))))
(assert (forall ((?v0 S3) (?v1 S18)) (= (f27 f28 (f29 (f30 f31 ?v0) ?v1)) (f118 (f119 ?v0) (f27 f28 ?v1)))))
(assert (forall ((?v0 S11) (?v1 S6)) (= (f14 f15 (f25 (f32 f33 ?v0) ?v1)) (f120 (f121 ?v0) (f14 f15 ?v1)))))
(assert (forall ((?v0 S24) (?v1 S25)) (= (f35 f36 (f37 (f38 f39 ?v0) ?v1)) (f126 (f127 ?v0) (f35 f36 ?v1)))))
(assert (forall ((?v0 S25) (?v1 S30)) (= (f41 f42 (f43 (f44 f45 ?v0) ?v1)) (f124 (f125 ?v0) (f41 f42 ?v1)))))
(assert (forall ((?v0 S10) (?v1 S4)) (= (f47 f48 (f18 (f19 f20 ?v0) ?v1)) (f122 (f123 ?v0) (f47 f48 ?v1)))))
(check-sat)
(exit)
